276548
[0, 1, 4, 2, 3, 5, 6, 7, 8, 9, 10, 11, 12, 13, 14, 15, 16, 17, 18, 19, 20, 21, 22, 23, 24, 25, 26, 27, 28, 29, 30, 31, 32, 33, 34, 35, 36, 37, 38, 39, 50, 49, 40, 48, 41, 42, 43, 44, 312, 315, 314, 313, 330, 331, 332, 333, 329, 328, 327, 326, 325, 324, 323, 322, 321, 320, 319, 318, 317, 316, 311, 310, 309, 47, 46, 45, 308, 307, 306, 305, 304, 990, 296, 297, 299, 298, 283, 284, 285, 286, 287, 295, 294, 293, 292, 291, 290, 289, 288, 401, 402, 403, 404, 405, 406, 407, 408, 409, 410, 411, 412, 414, 413, 415, 416, 417, 418, 419, 420, 421, 422, 423, 424, 425, 426, 460, 461, 462, 463, 464, 465, 466, 467, 468, 469, 470, 471, 472, 473, 474, 475, 476, 479, 478, 477, 581, 582, 583, 584, 585, 586, 587, 597, 598, 599, 600, 601, 602, 603, 604, 605, 606, 607, 608, 609, 628, 629, 630, 631, 440, 438, 437, 439, 441, 442, 443, 445, 433, 432, 431, 446, 444, 447, 448, 449, 450, 451, 452, 453, 454, 455, 456, 457, 458, 459, 427, 428, 429, 430, 996, 434, 435, 436, 373, 374, 375, 372, 371, 370, 369, 376, 368, 377, 379, 380, 378, 367, 366, 365, 364, 363, 362, 361, 360, 359, 351, 390, 389, 388, 387, 386, 385, 384, 383, 382, 381, 400, 398, 399, 397, 396, 395, 394, 393, 392, 391, 339, 338, 334, 335, 336, 337, 341, 340, 342, 343, 344, 345, 346, 347, 348, 349, 350, 352, 358, 357, 353, 356, 354, 355, 659, 660, 661, 655, 654, 656, 657, 658, 653, 652, 651, 650, 649, 648, 647, 644, 645, 646, 643, 642, 641, 640, 639, 638, 637, 636, 635, 634, 633, 632, 991, 624, 625, 627, 626, 610, 611, 612, 613, 614, 615, 623, 622, 621, 620, 616, 617, 618, 619, 726, 728, 727, 724, 725, 662, 663, 664, 665, 666, 667, 723, 722, 721, 720, 719, 718, 717, 716, 715, 714, 713, 708, 712, 711, 710, 709, 707, 706, 704, 703, 702, 701, 700, 699, 698, 697, 696, 705, 695, 694, 693, 692, 691, 690, 689, 688, 687, 679, 678, 672, 671, 668, 669, 670, 673, 674, 675, 676, 677, 680, 686, 685, 681, 684, 682, 683, 987, 988, 989, 983, 982, 984, 985, 986, 981, 980, 979, 978, 977, 976, 975, 972, 973, 974, 971, 970, 969, 968, 967, 966, 965, 964, 963, 962, 961, 992, 960, 959, 958, 957, 956, 954, 955, 953, 952, 951, 950, 949, 948, 947, 946, 945, 944, 943, 942, 941, 940, 939, 938, 937, 936, 935, 934, 933, 932, 931, 930, 929, 928, 927, 925, 926, 924, 923, 922, 921, 920, 919, 918, 901, 900, 899, 898, 906, 907, 1000, 910, 909, 908, 904, 905, 903, 902, 917, 916, 915, 914, 913, 911, 912, 776, 775, 772, 771, 770, 769, 767, 768, 766, 765, 764, 740, 739, 738, 736, 735, 729, 730, 731, 732, 733, 734, 737, 743, 741, 742, 744, 745, 746, 747, 748, 749, 750, 751, 752, 753, 754, 763, 762, 999, 756, 755, 757, 758, 759, 760, 761, 773, 774, 777, 778, 779, 780, 781, 782, 783, 784, 785, 786, 787, 788, 789, 790, 791, 792, 793, 794, 795, 796, 797, 798, 799, 800, 801, 802, 803, 804, 805, 806, 807, 808, 809, 810, 820, 821, 824, 823, 822, 818, 817, 819, 811, 812, 841, 896, 897, 895, 894, 893, 892, 891, 890, 889, 888, 887, 885, 886, 884, 883, 882, 881, 880, 879, 878, 877, 876, 875, 874, 873, 872, 871, 870, 869, 868, 867, 866, 865, 864, 863, 862, 860, 861, 859, 858, 856, 855, 854, 853, 852, 849, 848, 847, 846, 845, 844, 843, 842, 850, 851, 857, 1001, 837, 838, 839, 840, 814, 813, 815, 816, 827, 826, 825, 828, 829, 834, 835, 836, 833, 832, 830, 831, 537, 536, 535, 534, 532, 530, 531, 533, 527, 526, 525, 528, 524, 529, 998, 523, 522, 514, 513, 566, 517, 516, 515, 521, 520, 519, 518, 545, 544, 539, 538, 540, 543, 541, 542, 546, 547, 548, 549, 550, 551, 552, 553, 554, 555, 556, 558, 557, 559, 560, 561, 562, 563, 564, 565, 567, 568, 569, 578, 579, 570, 571, 572, 573, 590, 591, 592, 593, 594, 595, 596, 589, 588, 575, 574, 577, 576, 580, 997, 480, 481, 482, 492, 493, 496, 495, 494, 488, 487, 489, 490, 491, 483, 484, 485, 486, 512, 511, 510, 509, 508, 507, 506, 505, 504, 503, 502, 501, 500, 499, 498, 497, 212, 213, 214, 215, 211, 210, 216, 217, 218, 219, 220, 221, 222, 223, 224, 225, 226, 227, 228, 230, 229, 231, 232, 233, 234, 235, 236, 190, 191, 192, 193, 196, 200, 197, 198, 199, 207, 208, 209, 206, 204, 205, 203, 202, 995, 201, 195, 194, 186, 187, 188, 189, 238, 237, 239, 241, 240, 185, 184, 183, 182, 181, 180, 179, 178, 177, 176, 175, 174, 173, 172, 169, 170, 171, 168, 167, 166, 165, 164, 163, 162, 161, 160, 159, 158, 157, 156, 155, 154, 153, 152, 151, 150, 149, 148, 147, 146, 145, 144, 143, 142, 141, 140, 139, 138, 137, 136, 135, 134, 133, 132, 131, 130, 129, 128, 127, 126, 125, 124, 123, 122, 121, 119, 120, 256, 257, 258, 255, 254, 253, 252, 994, 251, 250, 242, 243, 245, 244, 246, 249, 248, 247, 259, 260, 261, 262, 263, 264, 265, 266, 267, 268, 270, 269, 271, 272, 273, 274, 275, 276, 277, 278, 279, 280, 281, 282, 300, 301, 303, 302, 115, 116, 118, 103, 104, 105, 117, 114, 113, 111, 112, 110, 109, 108, 107, 106, 993, 102, 101, 100, 99, 98, 97, 96, 95, 94, 93, 92, 91, 90, 89, 76, 78, 77, 87, 88, 86, 85, 84, 83, 82, 81, 79, 80, 51, 52, 53, 54, 55, 56, 57, 58, 59, 60, 61, 62, 63, 64, 65, 66, 67, 68, 69, 71, 70, 72, 73, 74, 75]
